
  32    4
  10   10   10   10

   0   0   0   0   0   2 2 3 
   4  10  10  10  10   2 5 4 
   3  10  10  10  10   1 4 
   4  10  10  10  10   3 9 7 6 
   3  10  10  10  10   2 9 6 
  10  10  10  10  10   2 10 8 
   6  10  10  10  10   2 10 8 
  10  10  10  10  10   2 12 11 
   4  10  10  10  10   1 10 
   6  10  10  10  10   1 11 
  10  10  10  10  10   2 14 13 
   8  10  10  10  10   2 14 13 
   3  10  10  10  10   2 17 15 
   1  10  10  10  10   2 17 16 
   3  10  10  10  10   2 18 16 
   4  10  10  10  10   2 21 19 
  10  10  10  10  10   2 21 18 
   6  10  10  10  10   2 23 20 
   8  10  10  10  10   2 23 20 
   2  10  10  10  10   2 24 22 
   6  10  10  10  10   2 23 22 
  10  10  10  10  10   2 26 25 
   7  10  10  10  10   2 26 25 
   6  10  10  10  10   2 26 25 
   1  10  10  10  10   3 30 29 27 
   4  10  10  10  10   3 30 29 27 
   6  10  10  10  10   1 28 
   5  10  10  10  10   1 31 
   7  10  10  10  10   1 31 
   3  10  10  10  10   1 31 
   4  10  10  10  10   1 32
   0   0   0   0   0   0 
